language Essence 1.3

letting blksize_delta be
        function(1 --> 8, 2 --> 8, 3 --> 8, 4 --> 8, 5 --> 9, 6 --> 9, 7 --> 8, 8 --> 9, 9 --> 8, 10 --> 8, 11 --> 8,
                 12 --> 8, 13 --> 10, 14 --> 10, 15 --> 8, 16 --> 8, 17 --> 9, 18 --> 10, 19 --> 8, 20 --> 8, 21 --> 8,
                 22 --> 8)
letting maxcars be
        function(1 --> 10, 2 --> 9, 3 --> 9, 4 --> 10, 5 --> 9, 6 --> 9, 7 --> 9, 8 --> 9, 9 --> 9, 10 --> 9, 11 --> 9,
                 12 --> 10, 13 --> 9, 14 --> 10, 15 --> 9, 16 --> 9, 17 --> 9, 18 --> 9, 19 --> 9, 20 --> 9, 21 --> 9,
                 22 --> 9)
letting n_cars be 223
letting n_classes be 29
letting n_options be 22
letting quantity be
        function(1 --> 7, 2 --> 24, 3 --> 9, 4 --> 8, 5 --> 7, 6 --> 7, 7 --> 7, 8 --> 7, 9 --> 7, 10 --> 7, 11 --> 7,
                 12 --> 7, 13 --> 7, 14 --> 7, 15 --> 7, 16 --> 7, 17 --> 7, 18 --> 7, 19 --> 7, 20 --> 7, 21 --> 7,
                 22 --> 7, 23 --> 7, 24 --> 7, 25 --> 7, 26 --> 7, 27 --> 7, 28 --> 7, 29 --> 7)
letting usage be
        relation((1, 3), (1, 6), (1, 9), (1, 11), (1, 14), (1, 21), (2, 12), (2, 15), (2, 16), (2, 17), (2, 19), (3, 5),
                 (3, 6), (3, 9), (3, 18), (4, 4), (4, 5), (4, 6), (4, 7), (4, 8), (5, 1), (5, 5), (5, 11), (5, 12),
                 (5, 13), (6, 8), (6, 12), (6, 18), (7, 5), (7, 9), (8, 8), (8, 10), (8, 11), (8, 14), (8, 15), (8, 19),
                 (8, 21), (9, 8), (9, 14), (10, 2), (10, 4), (10, 10), (10, 18), (11, 3), (11, 4), (11, 11), (11, 13),
                 (11, 14), (11, 18), (11, 21), (12, 2), (12, 3), (12, 8), (12, 19), (12, 21), (13, 2), (13, 4), (13, 5),
                 (13, 15), (13, 16), (14, 9), (14, 12), (14, 14), (14, 18), (15, 2), (15, 9), (15, 10), (15, 20),
                 (16, 4), (16, 14), (16, 17), (16, 18), (17, 2), (17, 3), (17, 5), (17, 7), (17, 8), (17, 12), (17, 19),
                 (17, 20), (17, 21), (18, 1), (18, 2), (18, 10), (18, 13), (19, 1), (19, 5), (19, 8), (19, 9), (19, 10),
                 (19, 11), (19, 14), (19, 15), (19, 16), (19, 18), (20, 6), (20, 13), (20, 15), (21, 3), (21, 8),
                 (21, 9), (21, 12), (21, 14), (21, 16), (21, 18), (22, 15), (23, 1), (23, 2), (23, 3), (23, 6), (23, 7),
                 (24, 1), (24, 5), (24, 9), (24, 10), (24, 18), (25, 14), (25, 16), (25, 17), (25, 20), (26, 5),
                 (26, 7), (26, 9), (26, 10), (26, 11), (26, 13), (26, 15), (26, 20), (26, 21), (27, 2), (28, 22),
                 (29, 7), (29, 9), (29, 12), (29, 19), (29, 20))
$ Visualisation for usage
$  1  3
$  1  6
$  1  9
$  1 11
$  1 14
$  1 21
$  2 12
$  2 15
$  2 16
$  2 17
$  2 19
$  3  5
$  3  6
$  3  9
$  3 18
$  4  4
$  4  5
$  4  6
$  4  7
$  4  8
$  5  1
$  5  5
$  5 11
$  5 12
$  5 13
$  6  8
$  6 12
$  6 18
$  7  5
$  7  9
$  8  8
$  8 10
$  8 11
$  8 14
$  8 15
$  8 19
$  8 21
$  9  8
$  9 14
$ 10  2
$ 10  4
$ 10 10
$ 10 18
$ 11  3
$ 11  4
$ 11 11
$ 11 13
$ 11 14
$ 11 18
$ 11 21
$ 12  2
$ 12  3
$ 12  8
$ 12 19
$ 12 21
$ 13  2
$ 13  4
$ 13  5
$ 13 15
$ 13 16
$ 14  9
$ 14 12
$ 14 14
$ 14 18
$ 15  2
$ 15  9
$ 15 10
$ 15 20
$ 16  4
$ 16 14
$ 16 17
$ 16 18
$ 17  2
$ 17  3
$ 17  5
$ 17  7
$ 17  8
$ 17 12
$ 17 19
$ 17 20
$ 17 21
$ 18  1
$ 18  2
$ 18 10
$ 18 13
$ 19  1
$ 19  5
$ 19  8
$ 19  9
$ 19 10
$ 19 11
$ 19 14
$ 19 15
$ 19 16
$ 19 18
$ 20  6
$ 20 13
$ 20 15
$ 21  3
$ 21  8
$ 21  9
$ 21 12
$ 21 14
$ 21 16
$ 21 18
$ 22 15
$ 23  1
$ 23  2
$ 23  3
$ 23  6
$ 23  7
$ 24  1
$ 24  5
$ 24  9
$ 24 10
$ 24 18
$ 25 14
$ 25 16
$ 25 17
$ 25 20
$ 26  5
$ 26  7
$ 26  9
$ 26 10
$ 26 11
$ 26 13
$ 26 15
$ 26 20
$ 26 21
$ 27  2
$ 28 22
$ 29  7
$ 29  9
$ 29 12
$ 29 19
$ 29 20

